clingo version 5.2.2
Reading from ...bust-coloring/instances/3-FullIns_5.lp ...
UNKNOWN

INTERRUPTED  : 1
Models       : 0+
Calls        : 1
Time         : 0.498s (Solving: 0.00s 1st Model: 0.00s Unsat: 0.00s)
CPU Time     : 0.498s
Threads      : 20       (Winner: 0)

elapsed time for 3-FullIns_5 was .505913452 seconds
